c description: Random 3-CNF over 10 variables and 20 clauses
p cnf 10 20
2 -6 -7 0
2 6 -8 0
2 -6 -9 0
-1 4 -8 0
-4 6 -7 0
2 5 -9 0
-1 3 -7 0
1 -2 -9 0
7 8 9 0
2 3 -5 0
1 4 -8 0
4 9 10 0
1 2 3 0
-2 4 5 0
3 -7 9 0
-2 5 -10 0
-2 9 -10 0
-1 3 -6 0
2 -4 6 0
-3 -5 8 0